webassembly/ejemplos_dzn/9/folder9_json_33.dzn
TERM = { '.', 's(2)', 's(5)', 's(4)', 'in_1', 'local_0', 'local_1', 's(1)', 's(0)', 's(3)', 'in_0'};
null = '.';
s = 9;
n = 8;
ndeps = 0;
max_registers_sz = 4;
NR = 1;
registers = [|'local_1', 's(4)'|];
dependencies = [| |];
GET_ENUM = { GET1, GET2, GET3, GET4, GET5};
SET_ENUM = { SET1, SET2, SET3, SET4, SET5};
TEE_ENUM = { TEE1, TEE2, TEE3, TEE4, TEE5};
N = 7;
OP = { 'i32.add_0', 'i32.load8_s_1', 'i32.load8_s_3', 'i32.load_4', 'i32.sub_0', 'i32.load_8', 'local.get_0' };
in_ops = [2, 1, 1, 1, 2, 1, 0 ];
out_ops = [1, 1, 1, 1, 1, 1, 1 ];
in1 = ['in_0', 's(0)', 'local_0', 's(2)', 'local_1', 's(4)', '.' ];
in2 = ['in_1', '.', '.', '.', 's(3)', '.', '.' ];
in3 = ['.', '.', '.', '.', '.', '.', '.' ];
out1 = ['s(0)', 's(1)', 's(2)', 's(3)', 's(4)', 's(5)', 'local_0' ];
out2 = ['.', '.', '.', '.', '.', '.', '.' ];
out3 = ['.', '.', '.', '.', '.', '.', '.' ];
comm = [true, false, false, false, false, false, false ];
gas = [1, 1, 1, 1, 1, 1, 1 ];
sz = [1, 1, 1, 1, 1, 1, 1 ];
stor = [false, false, false, false, false, false, false ];
lb = [ 1, 1, 1, 1, 1, 1, 1 ];
ub = [ 9, 9, 9, 9, 9, 9, 9 ];
startstack = [ 'in_0', 'in_1', null, null, null, null, null, null ];
endstack = [ 's(5)', 's(1)', null, null, null, null, null, null ];
