webassembly/ejemplos_results/9/folder9_json_33.txt
value = 9;
fgas = [1, 1, 1, 1, 1, 1, 1, 1, 1];
fsize = [1, 1, 1, 1, 1, 1, 1, 1, 1];
states = 
[|    in_0,    in_1,    '.', '.', '.', '.', '.',  '.'
 |  's(0)',    in_0,    '.', '.', '.', '.', '.', in_0
 |  's(1)',  's(3)',    '.', '.', '.', '.', '.', in_0
 | local_0,    in_0, 's(3)', '.', '.', '.', '.',  '.'
 |  's(2)',    in_0, 's(3)', '.', '.', '.', '.',  '.'
 |  's(3)', local_1, 's(3)', '.', '.', '.', '.',  '.'
 | local_1,  's(3)',    '.', '.', '.', '.', '.',  '.'
 |  's(4)',  's(4)',    '.', '.', '.', '.', '.',  '.'
 |  's(4)',     '.',    '.', '.', '.', '.', '.',  '.'
 |  's(5)',  's(1)',    '.', '.', '.', '.', '.',  '.'
 |];
register_states = 
[| local_1, '.', '.', '.', '.'
 | local_1, '.', '.', '.', '.'
 | local_1, '.', '.', '.', '.'
 | local_1, '.', '.', '.', '.'
 | local_1, '.', '.', '.', '.'
 | local_1, '.', '.', '.', '.'
 |  's(3)', '.', '.', '.', '.'
 |  's(3)', '.', '.', '.', '.'
 |  's(4)', '.', '.', '.', '.'
 |  's(4)', '.', '.', '.', '.'
 |];
program = [O('i32.add_0'), O('i32.load8_s_1'), O('local.get_0'), O('i32.load8_s_3'), O('i32.load_4'), S(SET1), O('i32.sub_0'), S(SET1), O('i32.load_8')];
% time elapsed: 0.08 s
----------
==========
% time elapsed: 0.08 s
% [value > 8]
